     Program PWSCF v.7.2 starts on 28Sep2023 at 13:20:56

     Reading input from relax.in

     Current dimensions of program PWSCF are:
     Max number of different atomic species (ntypx) = 10
     Max number of k-points (npk) =  40000
     Max angular momentum in pseudopotentials (lmaxx) =  4
     file Al.pbe-n-kjpaw_psl.1.0.0.UPF: wavefunction(s)  3S 3P renormalized

     R & G space division:  proc/nbgrp/npool/nimage =       6
     Subspace diagonalization in iterative solution of the eigenvalue problem:
     a serial algorithm will be used

     Using Slab Decomposition

     bravais-lattice index     =            6
     lattice parameter (alat)  =       5.3033  a.u.
     unit-cell volume          =    1193.2421 (a.u.)^3
     number of atoms/cell      =            7
     number of atomic types    =            1
     number of electrons       =        21.00
     number of Kohn-Sham states=           15
     kinetic-energy cutoff     =      12.0000  Ry
     charge density cutoff     =      48.0000  Ry
     scf convergence threshold =      1.0E-06
     mixing beta               =       0.3000
     number of iterations used =            8  plain     mixing
     energy convergence thresh.=      1.0E-04
     force convergence thresh. =      1.0E-03
     Exchange-correlation= SLA  PW   PBX  PBC
                           (   1   4   3   4   0   0   0)
     nstep                     =           50

     celldm(1)=   5.303300  celldm(2)=   0.000000  celldm(3)=   8.000000
     celldm(4)=   0.000000  celldm(5)=   0.000000  celldm(6)=   0.000000

     crystal axes: (cart. coord. in units of alat)
               a(1) = (   1.000000   0.000000   0.000000 )
               a(2) = (   0.000000   1.000000   0.000000 )
               a(3) = (   0.000000   0.000000   8.000000 )

     reciprocal axes: (cart. coord. in units 2 pi/alat)
               b(1) = (  1.000000  0.000000  0.000000 )
               b(2) = (  0.000000  1.000000  0.000000 )
               b(3) = (  0.000000  0.000000  0.125000 )

     PseudoPot. # 1 for Al read from file:
     ../pseudo/SSSP/Al.pbe-n-kjpaw_psl.1.0.0.UPF
     MD5 check sum: cfc449ca30b5f3223ec38ddd88ac046d
     Pseudo is Projector augmented-wave + core cor, Zval =  3.0
     Generated using "atomic" code by A. Dal Corso  v.5.1
     Shape of augmentation charge: PSQ
     Using radial grid of 1135 points,  6 beta functions with:
                l(1) =   0
                l(2) =   0
                l(3) =   1
                l(4) =   1
                l(5) =   2
                l(6) =   2
     Q(r) pseudized with 0 coefficients

     atomic species   valence    mass     pseudopotential
        Al             3.00     1.00000     Al( 1.00)

     16 Sym. Ops., with inversion, found

   Cartesian axes

     site n.     atom                  positions (alat units)
         1           Al  tau(   1) = (   0.5000000   0.5000000  -2.1213200  )
         2           Al  tau(   2) = (   0.0000000   0.0000000  -1.4142130  )
         3           Al  tau(   3) = (   0.5000000   0.5000000  -0.7071070  )
         4           Al  tau(   4) = (   0.0000000   0.0000000   0.0000000  )
         5           Al  tau(   5) = (   0.5000000   0.5000000   0.7071070  )
         6           Al  tau(   6) = (   0.0000000   0.0000000   1.4142130  )
         7           Al  tau(   7) = (   0.5000000   0.5000000   2.1213200  )

     number of k points=     3  Marzari-Vanderbilt smearing, width (Ry)=  0.0500
                       cart. coord. in units 2pi/alat
        k(    1) = (   0.1250000   0.1250000   0.0000000), wk =   0.5000000
        k(    2) = (   0.1250000   0.3750000   0.0000000), wk =   1.0000000
        k(    3) = (   0.3750000   0.3750000   0.0000000), wk =   0.5000000

     Check: negative core charge=   -0.000002

     Initial potential from superposition of free atoms

     starting charge      20.9840, renormalised to      21.0000

     negative rho (up, down):  1.425E-04 0.000E+00
     Starting wfcs are   28 randomized atomic wfcs
     Checking if some PAW data can be deallocated...

     Self-consistent Calculation

     iteration #  1     ecut=    12.00 Ry     beta= 0.30
     Davidson diagonalization with overlap
     ethr =  1.00E-02,  avg # of iterations =  3.7

     negative rho (up, down):  1.663E-04 0.000E+00

     total energy              =    -276.12886413 Ry
     estimated scf accuracy    <       0.76964292 Ry

[...]

     End of self-consistent calculation

          k = 0.1250 0.1250 0.0000 (   822 PWs)   bands (ev):

    -7.0217  -6.5028  -5.6464  -4.4990  -3.0825  -1.3736   0.6238   1.8750
     4.5480   5.7023   6.1821   6.4449   6.9767   7.3626   7.5578

[...]

     the Fermi energy is     3.6060 ev

!    total energy              =    -276.45203587 Ry
     total all-electron energy =     -3399.451507 Ry
     estimated scf accuracy    <       0.00000056 Ry
     smearing contrib. (-TS)   =       0.00079516 Ry
     internal energy E=F+TS    =    -276.45283103 Ry

     The total energy is F=E-TS. E is the sum of the following terms:
     one-electron contribution =    -179.46223963 Ry
     hartree contribution      =      97.65206501 Ry
     xc contribution           =     -18.10899891 Ry
     ewald contribution        =      66.25386160 Ry
     one-center paw contrib.   =    -242.78751909 Ry

     convergence has been achieved in  11 iterations

[...]

     Forces acting on atoms (cartesian axes, Ry/au):

     atom    1 type  1   force =     0.00000000    0.00000000   -0.00167099
     atom    2 type  1   force =     0.00000000    0.00000000   -0.00417212
     atom    3 type  1   force =     0.00000000    0.00000000    0.00539121
     atom    4 type  1   force =     0.00000000    0.00000000    0.00000000
     atom    5 type  1   force =     0.00000000    0.00000000   -0.00539121
     atom    6 type  1   force =     0.00000000    0.00000000    0.00417212
     atom    7 type  1   force =     0.00000000    0.00000000    0.00167099
     The non-local contrib.  to forces
     atom    1 type  1   force =     0.00000000    0.00000000   -0.01397226
     atom    2 type  1   force =     0.00000000    0.00000000    0.01212738
     atom    3 type  1   force =     0.00000000    0.00000000    0.00366904
     atom    4 type  1   force =     0.00000000    0.00000000    0.00000000
     atom    5 type  1   force =     0.00000000    0.00000000   -0.00366904
     atom    6 type  1   force =     0.00000000    0.00000000   -0.01212738
     atom    7 type  1   force =     0.00000000    0.00000000    0.01397226
     The ionic contribution  to forces
     atom    1 type  1   force =    -0.00000000   -0.00000000   -9.04317121
     atom    2 type  1   force =    -0.00000000   -0.00000000   -6.13515761
     atom    3 type  1   force =     0.00000000    0.00000000   -3.06642289
     atom    4 type  1   force =    -0.00000000   -0.00000000   -0.00000000
     atom    5 type  1   force =     0.00000000    0.00000000    3.06642289
     atom    6 type  1   force =    -0.00000000   -0.00000000    6.13515761
     atom    7 type  1   force =    -0.00000000   -0.00000000    9.04317121
     The local contribution  to forces
     atom    1 type  1   force =    -0.00000000   -0.00000000    9.05287014
     atom    2 type  1   force =     0.00000000   -0.00000000    6.11964408
     atom    3 type  1   force =    -0.00000000   -0.00000000    3.06804761
     atom    4 type  1   force =     0.00000000    0.00000000   -0.00000000
     atom    5 type  1   force =    -0.00000000   -0.00000000   -3.06804761
     atom    6 type  1   force =    -0.00000000   -0.00000000   -6.11964408
     atom    7 type  1   force =    -0.00000000   -0.00000000   -9.05287014
     The core correction contribution to forces
     atom    1 type  1   force =     0.00000000    0.00000000    0.00199177
     atom    2 type  1   force =     0.00000000    0.00000000   -0.00127256
     atom    3 type  1   force =     0.00000000   -0.00000000   -0.00036279
     atom    4 type  1   force =     0.00000000    0.00000000    0.00000000
     atom    5 type  1   force =     0.00000000    0.00000000    0.00036279
     atom    6 type  1   force =    -0.00000000    0.00000000    0.00127256
     atom    7 type  1   force =     0.00000000    0.00000000   -0.00199177
     The Hubbard contrib.    to forces
     atom    1 type  1   force =     0.00000000    0.00000000    0.00000000
     atom    2 type  1   force =     0.00000000    0.00000000    0.00000000
     atom    3 type  1   force =     0.00000000    0.00000000    0.00000000
     atom    4 type  1   force =     0.00000000    0.00000000    0.00000000
     atom    5 type  1   force =     0.00000000    0.00000000    0.00000000
     atom    6 type  1   force =     0.00000000    0.00000000    0.00000000
     atom    7 type  1   force =     0.00000000    0.00000000    0.00000000
     The SCF correction term to forces
     atom    1 type  1   force =    -0.00000000    0.00000000    0.00061058
     atom    2 type  1   force =     0.00000000    0.00000000    0.00048659
     atom    3 type  1   force =     0.00000000    0.00000000    0.00046024
     atom    4 type  1   force =    -0.00000000   -0.00000000    0.00000000
     atom    5 type  1   force =     0.00000000    0.00000000   -0.00046024
     atom    6 type  1   force =    -0.00000000   -0.00000000   -0.00048659
     atom    7 type  1   force =     0.00000000    0.00000000   -0.00061058

     Total force =     0.009926     Total SCF correction =     0.001282
     SCF correction compared to forces is large: reduce conv_thr to get better values

     BFGS Geometry Optimization
     Energy error            =      0.0E+00 Ry
     Gradient error          =      5.4E-03 Ry/Bohr

     number of scf cycles    =   1
     number of bfgs steps    =   0

     energy             new  =    -276.4520358663 Ry

     new trust radius        =       0.0053912091 bohr
     new conv_thr            =       0.0000010000 Ry

ATOMIC_POSITIONS (alat)
Al            0.5000000000        0.5000000000       -2.1216350845
Al            0.0000000000        0.0000000000       -1.4149997030
Al            0.5000000000        0.5000000000       -0.7060904237
Al            0.0000000000        0.0000000000        0.0000000000
Al            0.5000000000        0.5000000000        0.7060904237
Al            0.0000000000        0.0000000000        1.4149997030
Al            0.5000000000        0.5000000000        2.1216350845

     Writing config-only to output data dir ./Al.save/
     NEW-OLD atomic charge density approx. for the potential

[...]

     Total force =     0.008530     Total SCF correction =     0.000464
     Energy error            =      9.2E-05 Ry
     Gradient error          =      4.6E-03 Ry/Bohr

[...]

     energy             old  =    -276.4520358663 Ry
     energy             new  =    -276.4521281623 Ry

     CASE: energy            _new < energy            _old

     WARNING: bfgs curvature condition failed, Theta= 0.933
     new trust radius        =       0.0059303300 bohr
     new conv_thr            =       0.0000000100 Ry

[...]

     new trust radius        =       0.0199213699 bohr
     new conv_thr            =       0.0000000100 Ry

[...]

     Total force =     0.002254     Total SCF correction =     0.000054
     Energy error            =      5.4E-05 Ry
     Gradient error          =      1.2E-03 Ry/Bohr

     number of scf cycles    =   8
     number of bfgs steps    =   7

     energy             old  =    -276.4525363050 Ry
     energy             new  =    -276.4525902438 Ry

     CASE: energy            _new < energy            _old

     WARNING: bfgs curvature condition failed, Theta= 0.853
     new trust radius        =       0.0219135069 bohr
     new conv_thr            =       0.0000000100 Ry

ATOMIC_POSITIONS (alat)
Al            0.5000000001        0.5000000001       -2.1415144210
Al            0.0000000000        0.0000000000       -1.4300783538
Al            0.5000000001        0.5000000001       -0.7051021974
Al            0.0000000000        0.0000000000        0.0000000000
Al            0.5000000001        0.5000000001        0.7051021974
Al            0.0000000000        0.0000000000        1.4300783538
Al            0.5000000001        0.5000000001        2.1415144210

     Writing config-only to output data dir ./Al.save/
     NEW-OLD atomic charge density approx. for the potential

     Check: negative core charge=   -0.000002

[...]

     Self-consistent Calculation

[...]

     total energy              =    -276.45262848 Ry
     estimated scf accuracy    <       0.00000002 Ry

     iteration #  9     ecut=    12.00 Ry     beta= 0.30
     Davidson diagonalization with overlap
     ethr =  9.07E-11,  avg # of iterations =  1.0

[...]

     End of self-consistent calculation

[...]

          k = 0.3750 0.3750 0.0000 (   860 PWs)   bands (ev):

    -2.3641  -1.8267  -1.0720   0.0392   1.4201   1.4480   1.9645   2.6762
     2.9434   2.9442   3.6611   3.7489   4.3245   5.0549   5.1156

     the Fermi energy is     3.6248 ev

!    total energy              =    -276.45262848 Ry
     total all-electron energy =     -3399.452100 Ry
     estimated scf accuracy    <          4.1E-09 Ry
     smearing contrib. (-TS)   =       0.00042759 Ry
     internal energy E=F+TS    =    -276.45305607 Ry

     The total energy is F=E-TS. E is the sum of the following terms:
     one-electron contribution =    -173.79836673 Ry
     hartree contribution      =      94.83335136 Ry
     xc contribution           =     -18.07871256 Ry
     ewald contribution        =      63.37287256 Ry
     one-center paw contrib.   =    -242.78220070 Ry

     convergence has been achieved in   9 iterations

     negative rho (up, down):  2.586E-04 0.000E+00

     Forces acting on atoms (cartesian axes, Ry/au):

     atom    1 type  1   force =     0.00000000    0.00000000    0.00031821
     atom    2 type  1   force =     0.00000000    0.00000000   -0.00060022
     atom    3 type  1   force =     0.00000000    0.00000000    0.00010318
     atom    4 type  1   force =     0.00000000    0.00000000    0.00000000
     atom    5 type  1   force =     0.00000000    0.00000000   -0.00010318
     atom    6 type  1   force =     0.00000000    0.00000000    0.00060022
     atom    7 type  1   force =     0.00000000    0.00000000   -0.00031821
     The non-local contrib.  to forces
     atom    1 type  1   force =     0.00000000    0.00000000   -0.01152991
     atom    2 type  1   force =     0.00000000    0.00000000    0.01834087
     atom    3 type  1   force =     0.00000000    0.00000000   -0.00538700
     atom    4 type  1   force =     0.00000000    0.00000000    0.00000000
     atom    5 type  1   force =     0.00000000    0.00000000    0.00538700
     atom    6 type  1   force =     0.00000000    0.00000000   -0.01834087
     atom    7 type  1   force =     0.00000000    0.00000000    0.01152991
     The ionic contribution  to forces
     atom    1 type  1   force =    -0.00000000   -0.00000000   -8.90467634
     atom    2 type  1   force =     0.00000000    0.00000000   -6.03494813
     atom    3 type  1   force =    -0.00000000   -0.00000000   -3.06348000
     atom    4 type  1   force =     0.00000000    0.00000000    0.00000000
     atom    5 type  1   force =    -0.00000000   -0.00000000    3.06348000
     atom    6 type  1   force =     0.00000000    0.00000000    6.03494813
     atom    7 type  1   force =    -0.00000000   -0.00000000    8.90467634
     The local contribution  to forces
     atom    1 type  1   force =     0.00000000    0.00000000    8.91476405
     atom    2 type  1   force =     0.00000000   -0.00000000    6.01798255
     atom    3 type  1   force =     0.00000000    0.00000000    3.06822498
     atom    4 type  1   force =     0.00000000   -0.00000000    0.00000000
     atom    5 type  1   force =     0.00000000    0.00000000   -3.06822498
     atom    6 type  1   force =     0.00000000    0.00000000   -6.01798255
     atom    7 type  1   force =     0.00000000    0.00000000   -8.91476405
     The core correction contribution to forces
     atom    1 type  1   force =     0.00000000    0.00000000    0.00173822
     atom    2 type  1   force =    -0.00000000   -0.00000000   -0.00204049
     atom    3 type  1   force =     0.00000000    0.00000000    0.00070297
     atom    4 type  1   force =     0.00000000    0.00000000    0.00000000
     atom    5 type  1   force =     0.00000000    0.00000000   -0.00070297
     atom    6 type  1   force =    -0.00000000   -0.00000000    0.00204049
     atom    7 type  1   force =     0.00000000    0.00000000   -0.00173822
     The Hubbard contrib.    to forces
     atom    1 type  1   force =     0.00000000    0.00000000    0.00000000
     atom    2 type  1   force =     0.00000000    0.00000000    0.00000000
     atom    3 type  1   force =     0.00000000    0.00000000    0.00000000
     atom    4 type  1   force =     0.00000000    0.00000000    0.00000000
     atom    5 type  1   force =     0.00000000    0.00000000    0.00000000
     atom    6 type  1   force =     0.00000000    0.00000000    0.00000000
     atom    7 type  1   force =     0.00000000    0.00000000    0.00000000
     The SCF correction term to forces
     atom    1 type  1   force =    -0.00000000   -0.00000000    0.00002219
     atom    2 type  1   force =    -0.00000000   -0.00000000    0.00006498
     atom    3 type  1   force =    -0.00000000   -0.00000000    0.00004224
     atom    4 type  1   force =    -0.00000000   -0.00000000   -0.00000000
     atom    5 type  1   force =    -0.00000000   -0.00000000   -0.00004224
     atom    6 type  1   force =    -0.00000000   -0.00000000   -0.00006498
     atom    7 type  1   force =    -0.00000000   -0.00000000   -0.00002219

     Total force =     0.000972     Total SCF correction =     0.000114
     SCF correction compared to forces is large: reduce conv_thr to get better values
     Energy error            =      3.8E-05 Ry
     Gradient error          =      6.0E-04 Ry/Bohr

     bfgs converged in   9 scf cycles and   8 bfgs steps
     (criteria: energy <  1.0E-04 Ry, force <  1.0E-03 Ry/Bohr)

     End of BFGS Geometry Optimization

     Final energy             =    -276.4526284805 Ry

     File ./Al.bfgs deleted, as requested
Begin final coordinates

ATOMIC_POSITIONS (alat)
Al            0.5000000001        0.5000000001       -2.1415144210
Al            0.0000000000        0.0000000000       -1.4300783538
Al            0.5000000001        0.5000000001       -0.7051021974
Al            0.0000000000        0.0000000000        0.0000000000
Al            0.5000000001        0.5000000001        0.7051021974
Al            0.0000000000        0.0000000000        1.4300783538
Al            0.5000000001        0.5000000001        2.1415144210
End final coordinates

     Writing all to output data dir ./Al.save/

     General routines

     Parallel routines

   This run was terminated on:  13:33:37  28Sep2023

   JOB DONE.